NAME : rnd21_20.tsp
TYPE : TSP
DIMENSION : 20
EDGE_WEIGHT_TYPE : EUC_2D
NODE_COORD_SECTION
1 953 693
2 276 237
3 322 17
4 270 610
5 343 503
6 544 181
7 170 969
8 310 53
9 49 814
10 803 247
11 579 465
12 474 588
13 531 808
14 635 999
15 566 962
16 371 425
17 359 964
18 204 685
19 469 460
20 775 25
